NAME : zqloutput/eax-hard-simple-rescaleandround/50-78.tsp
TYPE : TSP
DIMENSION : 50
EDGE_WEIGHT_TYPE : EUC_2D
NODE_COORD_SECTION
1 390679 248225
2 208408 933093
3 414586 409028
4 717181 744599
5 760179 929678
6 98188 694035
7 846003 187147
8 215240 407298
9 291236 967533
10 303350 677176
11 524279 584588
12 874626 616521
13 342517 469817
14 153187 414167
15 511909 743071
16 587682 749258
17 688553 667065
18 232428 533999
19 571573 270147
20 254212 798348
21 325810 760111
22 313599 967037
23 839520 985465
24 703759 193108
25 792806 923352
26 347959 525091
27 799580 396714
28 965142 434474
29 717360 822210
30 602376 500151
31 366600 382431
32 364704 482549
33 526379 740781
34 5621 335872
35 455455 319204
36 538583 993497
37 408079 302114
38 886576 725785
39 181203 192788
40 156461 362726
41 307824 584335
42 400368 892322
43 812790 587291
44 133717 803993
45 4515 532962
46 602037 333793
47 634126 689475
48 685708 864438
49 831791 88818
50 737109 872994
EOF
